db/data/277671420917641270469699209452452512427.z3.out
sat
-------------------
7.711372711
